9
0, 254, 634, 577, 31, 239, 588, 775, 189
254, 0, 558, 322, 276, 372, 334, 544, 438
634, 558, 0, 618, 665, 862, 605, 931, 694
577, 322, 618, 0, 599, 655, 22, 313, 759
31, 276, 665, 599, 0, 214, 610, 787, 178
239, 372, 862, 655, 214, 0, 672, 757, 330
588, 334, 605, 22, 610, 672, 0, 326, 768
775, 544, 931, 313, 787, 757, 326, 0, 963
189, 438, 694, 759, 178, 330, 768, 963, 0
